NAME : eil76
COMMENT : Optimum tour for eil76 (538)
TYPE : TOUR
DIMENSION : 76
TOUR_SECTION
41
63
21
61
72
0
32
62
15
2
43
31
8
38
71
57
11
39
16
50
5
67
3
74
75
25
66
33
45
51
26
44
28
47
29
1
73
27
60
20
46
35
68
70
59
69
19
36
4
14
56
12
53
18
7
6
34
52
13
58
10
65
64
37
9
30
54
24
49
17
23
48
22
55
40
42
-1
EOF